(set-info :source |printed by MathSAT|)
(declare-fun |!{$(in_main#0)<N>}| () Int)
(declare-fun |!{$(in_main#0)<N>}.next| () Int)
(declare-fun |!{$(in_main#0)<&array1>}| () Int)
(declare-fun |!{$(in_main#0)<&array1>}.next| () Int)
(declare-fun |!{$(in_main#0)<&array2>}| () Int)
(declare-fun |!{$(in_main#0)<&array2>}.next| () Int)
(declare-fun |!{$(in_main#0)<k>}| () Int)
(declare-fun |!{$(in_main#0)<k>}.next| () Int)
(declare-fun |!{$(in_main#0)<k#1>}| () Int)
(declare-fun |!{$(in_main#0)<k#1>}.next| () Int)
(declare-fun |!{%memaddr}| () Int)
(declare-fun |!{%memaddr}.next| () Int)
(declare-fun |!{%mem.0}| () (Array Int Int))
(declare-fun |!{%mem.0}.next| () (Array Int Int))
(declare-fun |!{$(in_main#0)<$(in___VERIFIER_nondet_int#2)<h#<__VERIFIER_nondet_int.return>>>}| () Int)
(declare-fun |!{$(in_main#0)<$(in___VERIFIER_nondet_int#4)<h#<__VERIFIER_nondet_int.return>>>}| () Int)
(declare-fun |!{$(in_main#0)<$(in___VERIFIER_nondet_int#5)<h#<__VERIFIER_nondet_int.return>>>}| () Int)
(declare-fun !pc () Int)
(declare-fun !pc.next () Int)
(declare-fun |%{$(in_main#0)<k#1>}#1| () Int)
(declare-fun |%{%mem.0}#3| () (Array Int Int))
(define-fun .def_55 () Int (! !pc :next !pc.next))
(define-fun .def_58 () Bool (! (= .def_55 2) :init true))
(define-fun .def_211 () Bool (= .def_55 57))
(define-fun .def_146 () Bool (= !pc.next 123))
(define-fun .def_214 () Bool (and .def_146 .def_211))
(define-fun .def_204 () Bool (= |!{%mem.0}.next| |%{%mem.0}#3|))
(define-fun .def_201 () Bool (= |!{$(in_main#0)<k#1>}.next| 0))
(define-fun .def_10 () Int (! |!{$(in_main#0)<&array1>}| :next |!{$(in_main#0)<&array1>}.next|))
(define-fun .def_109 () Bool (= .def_10 |!{$(in_main#0)<&array1>}.next|))
(define-fun .def_8 () Int (! |!{$(in_main#0)<N>}| :next |!{$(in_main#0)<N>}.next|))
(define-fun .def_107 () Bool (= .def_8 |!{$(in_main#0)<N>}.next|))
(define-fun .def_121 () Bool (and .def_107 .def_109))
(define-fun .def_12 () Int (! |!{$(in_main#0)<&array2>}| :next |!{$(in_main#0)<&array2>}.next|))
(define-fun .def_111 () Bool (= .def_12 |!{$(in_main#0)<&array2>}.next|))
(define-fun .def_122 () Bool (and .def_111 .def_121))
(define-fun .def_14 () Int (! |!{$(in_main#0)<k>}| :next |!{$(in_main#0)<k>}.next|))
(define-fun .def_113 () Bool (= .def_14 |!{$(in_main#0)<k>}.next|))
(define-fun .def_123 () Bool (and .def_113 .def_122))
(define-fun .def_202 () Bool (and .def_123 .def_201))
(define-fun .def_18 () Int (! |!{%memaddr}| :next |!{%memaddr}.next|))
(define-fun .def_117 () Bool (= .def_18 |!{%memaddr}.next|))
(define-fun .def_203 () Bool (and .def_117 .def_202))
(define-fun .def_205 () Bool (and .def_203 .def_204))
(define-fun .def_20 () (Array Int Int) (! |!{%mem.0}| :next |!{%mem.0}.next|))
(define-fun .def_188 () Bool (= .def_20 |%{%mem.0}#3|))
(define-fun .def_164 () Bool (<= .def_8 0))
(define-fun .def_189 () Bool (and .def_164 .def_188))
(define-fun .def_171 () Int (+ .def_12 1))
(define-fun .def_166 () Int (select .def_20 .def_12))
(define-fun .def_167 () (Array Int Int) (store .def_20 .def_10 .def_166))
(define-fun .def_172 () Int (select .def_167 .def_171))
(define-fun .def_170 () Int (+ .def_10 1))
(define-fun .def_173 () (Array Int Int) (store .def_167 .def_170 .def_172))
(define-fun .def_181 () Bool (= .def_173 |%{%mem.0}#3|))
(define-fun .def_168 () Bool (<= .def_8 1))
(define-fun .def_169 () Bool (not .def_168))
(define-fun .def_183 () Bool (and .def_169 .def_181))
(define-fun .def_180 () Bool (= .def_167 |%{%mem.0}#3|))
(define-fun .def_182 () Bool (and .def_168 .def_180))
(define-fun .def_184 () Bool (or .def_182 .def_183))
(define-fun .def_165 () Bool (not .def_164))
(define-fun .def_185 () Bool (and .def_165 .def_184))
(define-fun .def_190 () Bool (or .def_185 .def_189))
(define-fun .def_206 () Bool (and .def_190 .def_205))
(define-fun .def_157 () Bool (<= .def_8 .def_14))
(define-fun .def_207 () Bool (and .def_157 .def_206))
(define-fun .def_215 () Bool (and .def_207 .def_214))
(define-fun .def_91 () Bool (= !pc.next 57))
(define-fun .def_212 () Bool (and .def_91 .def_211))
(define-fun .def_161 () Int (+ .def_12 .def_14))
(define-fun .def_159 () Int (+ .def_10 .def_14))
(define-fun .def_160 () (Array Int Int) (store .def_20 .def_159 |!{$(in_main#0)<$(in___VERIFIER_nondet_int#4)<h#<__VERIFIER_nondet_int.return>>>}|))
(define-fun .def_162 () (Array Int Int) (store .def_160 .def_161 |!{$(in_main#0)<$(in___VERIFIER_nondet_int#5)<h#<__VERIFIER_nondet_int.return>>>}|))
(define-fun .def_198 () Bool (= |!{%mem.0}.next| .def_162))
(define-fun .def_192 () Int (* (- 1) |!{$(in_main#0)<k>}.next|))
(define-fun .def_193 () Int (+ .def_14 .def_192))
(define-fun .def_194 () Bool (= .def_193 (- 1)))
(define-fun .def_195 () Bool (and .def_122 .def_194))
(define-fun .def_16 () Int (! |!{$(in_main#0)<k#1>}| :next |!{$(in_main#0)<k#1>}.next|))
(define-fun .def_115 () Bool (= .def_16 |!{$(in_main#0)<k#1>}.next|))
(define-fun .def_196 () Bool (and .def_115 .def_195))
(define-fun .def_197 () Bool (and .def_117 .def_196))
(define-fun .def_199 () Bool (and .def_197 .def_198))
(define-fun .def_158 () Bool (not .def_157))
(define-fun .def_200 () Bool (and .def_158 .def_199))
(define-fun .def_213 () Bool (and .def_200 .def_212))
(define-fun .def_216 () Bool (or .def_213 .def_215))
(define-fun .def_150 () Bool (= !pc.next 0))
(define-fun .def_141 () Bool (= .def_55 123))
(define-fun .def_151 () Bool (and .def_141 .def_150))
(define-fun .def_94 () Bool (<= .def_8 .def_16))
(define-fun .def_133 () Bool (and .def_94 .def_107))
(define-fun .def_134 () Bool (and .def_109 .def_133))
(define-fun .def_135 () Bool (and .def_111 .def_134))
(define-fun .def_136 () Bool (and .def_113 .def_135))
(define-fun .def_137 () Bool (and .def_115 .def_136))
(define-fun .def_138 () Bool (and .def_117 .def_137))
(define-fun .def_87 () Bool (= .def_20 |!{%mem.0}.next|))
(define-fun .def_139 () Bool (and .def_87 .def_138))
(define-fun .def_152 () Bool (and .def_139 .def_151))
(define-fun .def_147 () Bool (and .def_141 .def_146))
(define-fun .def_125 () Int (* (- 1) |!{$(in_main#0)<k#1>}.next|))
(define-fun .def_126 () Int (+ .def_16 .def_125))
(define-fun .def_127 () Bool (= .def_126 (- 1)))
(define-fun .def_128 () Bool (and .def_123 .def_127))
(define-fun .def_129 () Bool (and .def_117 .def_128))
(define-fun .def_130 () Bool (and .def_87 .def_129))
(define-fun .def_98 () Int (+ .def_12 .def_16))
(define-fun .def_99 () Int (select .def_20 .def_98))
(define-fun .def_96 () Int (+ .def_10 .def_16))
(define-fun .def_97 () Int (select .def_20 .def_96))
(define-fun .def_100 () Bool (= .def_97 .def_99))
(define-fun .def_101 () Int (ite .def_100 1 0))
(define-fun .def_102 () Bool (= .def_101 0))
(define-fun .def_103 () Bool (not .def_102))
(define-fun .def_131 () Bool (and .def_103 .def_130))
(define-fun .def_95 () Bool (not .def_94))
(define-fun .def_132 () Bool (and .def_95 .def_131))
(define-fun .def_148 () Bool (and .def_132 .def_147))
(define-fun .def_143 () Bool (= !pc.next 143))
(define-fun .def_144 () Bool (and .def_141 .def_143))
(define-fun .def_108 () Bool (and .def_102 .def_107))
(define-fun .def_110 () Bool (and .def_108 .def_109))
(define-fun .def_112 () Bool (and .def_110 .def_111))
(define-fun .def_114 () Bool (and .def_112 .def_113))
(define-fun .def_116 () Bool (and .def_114 .def_115))
(define-fun .def_118 () Bool (and .def_116 .def_117))
(define-fun .def_119 () Bool (and .def_87 .def_118))
(define-fun .def_120 () Bool (and .def_95 .def_119))
(define-fun .def_145 () Bool (and .def_120 .def_144))
(define-fun .def_149 () Bool (or .def_145 .def_148))
(define-fun .def_153 () Bool (or .def_149 .def_152))
(define-fun .def_92 () Bool (and .def_58 .def_91))
(define-fun .def_85 () Bool (= |!{%memaddr}.next| 3))
(define-fun .def_83 () Bool (= |!{$(in_main#0)<k#1>}.next| |%{$(in_main#0)<k#1>}#1|))
(define-fun .def_81 () Bool (= |!{$(in_main#0)<k>}.next| 0))
(define-fun .def_79 () Bool (= |!{$(in_main#0)<&array2>}.next| 2))
(define-fun .def_77 () Bool (= |!{$(in_main#0)<&array1>}.next| 1))
(define-fun .def_76 () Bool (= |!{$(in_main#0)<N>}.next| |!{$(in_main#0)<$(in___VERIFIER_nondet_int#2)<h#<__VERIFIER_nondet_int.return>>>}|))
(define-fun .def_78 () Bool (and .def_76 .def_77))
(define-fun .def_80 () Bool (and .def_78 .def_79))
(define-fun .def_82 () Bool (and .def_80 .def_81))
(define-fun .def_84 () Bool (and .def_82 .def_83))
(define-fun .def_86 () Bool (and .def_84 .def_85))
(define-fun .def_88 () Bool (and .def_86 .def_87))
(define-fun .def_71 () Bool (<= |!{$(in_main#0)<$(in___VERIFIER_nondet_int#2)<h#<__VERIFIER_nondet_int.return>>>}| 0))
(define-fun .def_72 () Bool (not .def_71))
(define-fun .def_73 () Int (ite .def_72 1 0))
(define-fun .def_74 () Bool (= .def_73 0))
(define-fun .def_75 () Bool (not .def_74))
(define-fun .def_89 () Bool (and .def_75 .def_88))
(define-fun .def_93 () Bool (and .def_89 .def_92))
(define-fun .def_154 () Bool (or .def_93 .def_153))
(define-fun .def_217 () Bool (! (or .def_154 .def_216) :trans true))
(define-fun .def_155 () Bool (= .def_55 143))
(define-fun .def_218 () Bool (! (not .def_155) :invar-property 0 :invar-property-name ||))
(assert true)
